152 89 49 195 23 42 194 58 13 82 2 185 190 171 137 140 48 128 151 72 126 153 47 109 108 113 36 59 84 6 39 76 83 51 94 147 71 27 0 45 101 30 67 163 134 78 168 167 68 15 34 139 88 77 174 166 99 150 170 112 178 120 28 56 92 161 18 81 64 158 5 155 4 181 182 25 122 164 44 14 189 180 121 93 156 111 43 61 197 196 20 199 74 38 118 21 169 176 26 33 175 41 52 53 106 125 173 193 124 10 184 119 19 107 24 105 115 100 103 131 114 62 165 65 46 116 29 54 50 8 123 40 87 129 141 117 110 187 35 73 85 9 135 31 188 79 102 60 22 191 172 142 97 37 179 70 148 75 127 186 136 86 91 90 192 69 133 149 160 198 130 183 145 66 55 159 16 104 143 57 96 146 98 157 162 132 177 63 95 12 154 80 144 1 32 7 3 11 138 17 

